
Gurobi 10.0.1 (win64) logging started Mon Aug 28 19:51:26 2023

Set parameter LogFile to value "results//log/BA_12_deadline.log"
Gurobi Optimizer version 10.0.1 build v10.0.1rc0 (win64)

CPU model: AMD Ryzen 7 3700X 8-Core Processor, instruction set [SSE2|AVX|AVX2]
Thread count: 8 physical cores, 16 logical processors, using up to 16 threads

Optimize a model with 492 rows, 331 columns and 1945 nonzeros
Model fingerprint: 0x1e6fa9ec
Model has 1 quadratic constraint
Variable types: 45 continuous, 286 integer (285 binary)
Coefficient statistics:
  Matrix range     [1e+00, 1e+06]
  QMatrix range    [1e+00, 1e+00]
  QLMatrix range   [1e+00, 1e+01]
  Objective range  [1e+00, 1e+00]
  Bounds range     [1e+00, 1e+00]
  RHS range        [1e+00, 3e+06]
Presolve removed 68 rows and 120 columns
Presolve time: 0.01s
Presolved: 440 rows, 226 columns, 1923 nonzeros
Variable types: 60 continuous, 166 integer (165 binary)
Found heuristic solution: objective 133.0000000

Root relaxation: objective 0.000000e+00, 49 iterations, 0.00 seconds (0.00 work units)

    Nodes    |    Current Node    |     Objective Bounds      |     Work
 Expl Unexpl |  Obj  Depth IntInf | Incumbent    BestBd   Gap | It/Node Time

     0     0    0.00000    0    2  133.00000    0.00000   100%     -    0s
H    0     0                      80.0000000    0.00000   100%     -    0s
H    0     0                      79.0000000    0.00000   100%     -    0s
H    0     0                      77.0000000    0.00000   100%     -    0s
H    0     0                      38.0000000    0.00000   100%     -    0s
H    0     0                      36.0000000    0.00000   100%     -    0s
     0     0    0.00000    0    7   36.00000    0.00000   100%     -    0s
H    0     0                      35.0000000    0.00000   100%     -    0s
H    0     0                      29.0000000    0.00000   100%     -    0s
     0     0    0.00000    0    7   29.00000    0.00000   100%     -    0s
     0     0    0.00000    0    9   29.00000    0.00000   100%     -    0s
     0     0    0.00000    0   10   29.00000    0.00000   100%     -    0s
     0     0    0.00000    0    7   29.00000    0.00000   100%     -    0s
     0     0    0.00000    0   12   29.00000    0.00000   100%     -    0s
     0     0    0.00000    0    1   29.00000    0.00000   100%     -    0s
     0     0    0.00000    0    4   29.00000    0.00000   100%     -    0s
     0     0    0.00000    0    9   29.00000    0.00000   100%     -    0s
     0     0    0.00000    0    9   29.00000    0.00000   100%     -    0s
H    0     0                      28.0000000    0.00000   100%     -    0s
     0     2    0.00000    0    9   28.00000    0.00000   100%     -    0s
H  175   152                      25.0000000    0.00000   100%  10.4    0s
H  433   293                      20.0000000    0.00000   100%   7.6    0s

Cutting planes:
  Learned: 19

Explored 33861 nodes (375778 simplex iterations) in 1.94 seconds (1.26 work units)
Thread count was 16 (of 16 available processors)

Solution count 10: 20 25 28 ... 80

Optimal solution found (tolerance 1.00e-04)
Best objective 2.000000000000e+01, best bound 2.000000000000e+01, gap 0.0000%
Warning: constraint name "precedence between 0,2 to 0,0 if x_[j,l,h,z,i]=1" has a space
Warning: constraint name "precedence between 0,2 to 0,0 if x_[j,l,h,z,i]=1" has a space
Warning: default constraint names used to write mps file
